NAME : pr144
COMMENT : 144-city problem (Padberg/Rinaldi)
TYPE : TSP
DIMENSION : 144
EDGE_WEIGHT_TYPE : EUC_2D
NODE_COORD_SECTION
1 4350 4425
2 4500 4425
3 4300 4725
4 4300 4825
5 4300 4950
6 4300 5050
7 4350 8875
8 4500 8875
9 4300 9175
EOF